(set-logic LIA) (declare-var xPostExec Int) (declare-var B2 Bool) (declare-var z!0 Int) (declare-var zPostExec Int) (declare-var yPostExec Int) (declare-var y!M0 Int) (declare-var y!27 Int) (declare-var x!M0 Int) (declare-var x!17 Int) (declare-var J24 Bool) (declare-var J14 Bool) (declare-var J8 Bool) (declare-var J5 Bool) (synth-fun rankingFunction!0 ((arg0 Int) (arg1 Int) (arg2 Int)) Int ((NTInt Int) (NTbool Bool)) ((NTInt Int (arg0 arg1 arg2 0 1 (- NTInt) (+ NTInt NTInt) (- NTInt NTInt) (ite NTbool NTInt NTInt))) (NTbool Bool ((not NTbool) (and NTbool NTbool) (or NTbool NTbool) (ite NTbool NTbool NTbool) (= NTInt NTInt) (< NTInt NTInt) (> NTInt NTInt))))) (constraint (=> (and (and (and (and (and (and (and (and (and (and (and (and (and (and (= J5 (not (<= x!M0 z!0))) (= J8 (<= y!M0 z!0))) (= B2 (or J5 (and (not J5) (not J8))))) (= J14 (<= x!M0 z!0))) (= J24 (<= y!M0 z!0))) (= y!27 (+ (- 1) y!M0))) (= x!17 (+ (- 1) x!M0))) (=> (and B2 (and J14 J24)) (= xPostExec x!M0))) (=> (and B2 (and J14 J24)) (= yPostExec y!M0))) (=> (and B2 (and J14 (not J24))) (= xPostExec x!M0))) (=> (and B2 (and J14 (not J24))) (= yPostExec y!27))) (=> (and B2 (not J14)) (= xPostExec x!17))) (=> (and B2 (not J14)) (= yPostExec y!M0))) (or (and B2 (and J14 J24)) (or (and B2 (and J14 (not J24))) (and B2 (not J14))))) (= z!0 zPostExec)) (and (> (rankingFunction!0 x!M0 y!M0 z!0) (rankingFunction!0 xPostExec yPostExec zPostExec)) (>= (rankingFunction!0 x!M0 y!M0 z!0) 0)))) (check-synth)